30 51
1 2 12
1 5 7
1 12 3
2 6 10
2 14 15
3 4 5
3 8 11
3 25 13
4 7 8
4 15 6
5 9 2
5 16 17
6 10 4
6 18 7
7 11 10
7 17 14
8 12 6
8 13 9
9 14 13
9 21 3
10 15 11
10 26 8
11 16 4
11 27 6
12 17 5
12 24 10
13 18 9
13 19 15
14 20 12
14 29 14
15 19 3
16 20 6
16 30 10
17 21 7
18 22 5
18 28 8
19 23 6
20 24 9
21 25 3
21 26 11
22 23 4
22 27 13
23 28 8
24 25 5
24 30 7
25 29 6
26 27 12
26 30 5
27 28 4
28 29 10
29 30 9
